************************************************************************
file with basedata            : md375_.bas
initial value random generator: 297359037
************************************************************************
projects                      :  1
jobs (incl. supersource/sink ):  22
horizon                       :  144
RESOURCES
  - renewable                 :  2   R
  - nonrenewable              :  2   N
  - doubly constrained        :  0   D
************************************************************************
PROJECT INFORMATION:
pronr.  #jobs rel.date duedate tardcost  MPM-Time
    1     20      0       21       19       21
************************************************************************
PRECEDENCE RELATIONS:
jobnr.    #modes  #successors   successors
   1        1          3           2   3   4
   2        3          3           9  12  16
   3        3          3           5  13  18
   4        3          3           7  13  19
   5        3          3           6   9  12
   6        3          3           8  14  19
   7        3          2          11  14
   8        3          2          10  20
   9        3          1          21
  10        3          1          11
  11        3          2          15  16
  12        3          1          15
  13        3          2          17  20
  14        3          2          15  16
  15        3          1          17
  16        3          1          17
  17        3          1          21
  18        3          3          19  20  21
  19        3          1          22
  20        3          1          22
  21        3          1          22
  22        1          0        
************************************************************************
REQUESTS/DURATIONS:
jobnr. mode duration  R 1  R 2  N 1  N 2
------------------------------------------------------------------------
  1      1     0       0    0    0    0
  2      1     1       6    4    8    9
         2     5       1    2    8    9
         3     5       4    1    7    9
  3      1     2       7    8    4    5
         2     3       7    8    4    3
         3     5       2    7    3    1
  4      1     3       3    6    7    6
         2     4       3    5    6    6
         3     6       2    4    4    6
  5      1     4       4    7    3    1
         2     4       3    5   10    4
         3     4       4    5    6    1
  6      1     1       9    8    6    9
         2     8       9    7    6    8
         3     9       9    7    3    8
  7      1     2       4    4    4    4
         2    10       3    3    4    3
         3    10       3    4    3    3
  8      1     1       8    6    9    7
         2     1       8    7    9    6
         3     5       6    4    4    5
  9      1     4       4    5    8    6
         2     4       5    4    7    7
         3     7       4    4    5    4
 10      1     2       4    6    4    6
         2     4       3    5    4    4
         3    10       1    3    4    3
 11      1     2       8    8    9    5
         2     7       6    8    7    3
         3    10       2    6    6    3
 12      1     1       6    8   10    9
         2     4       6    8   10    7
         3     8       4    7    9    6
 13      1     3       9    8    9    9
         2     6       9    4    8    8
         3     7       9    2    7    8
 14      1     5       6    3   10    3
         2     8       6    3    8    3
         3    10       6    3    7    1
 15      1     2       9   10    6    2
         2     2      10    7    6    2
         3     4       8    5    6    2
 16      1     2       5    8    5    8
         2     3       5    6    2    6
         3     4       3    5    1    4
 17      1     3       3    8    3    4
         2     7       3    6    3    4
         3    10       2    4    2    3
 18      1     3       5    6    4    6
         2     4       4    6    3    5
         3     6       1    4    2    4
 19      1     2       8    6    6    4
         2     3       5    5    5    3
         3    10       4    5    5    3
 20      1     3       8    4    7    5
         2     4       5    4    1    3
         3     4       6    4    3    1
 21      1     4      10    5    1    8
         2     5       8    5    1    8
         3    10       7    5    1    7
 22      1     0       0    0    0    0
************************************************************************
RESOURCEAVAILABILITIES:
  R 1  R 2  N 1  N 2
   26   21  118  111
************************************************************************
MAXIMAL LAGS:
from  to  type  delay
    1   12   ES      0
    1    2   ES      0
    2   12   ES      0
    1    3   ES      0
    3   12   ES      0
    1    4   ES      0
    4   12   ES      0
    1    5   ES      0
    5   12   ES      0
    1    6   ES      0
    6   12   ES      0
    1    7   ES      0
    7   12   ES      0
    1    8   ES      0
    8   12   ES      0
    1    9   ES      0
    9   12   ES      0
    1   10   ES      0
   10   12   ES      0
    1   11   ES      0
   11   12   ES      0
    1   12   ES      0
    2    9   SS      7
    2    9   SE     -6
    2    9   ES     11
    2    9   EE     -9
    2   16   SS     -3
    2   16   SE      8
    2   16   ES     -3
    2   16   EE     -4
    3    5   SS      8
    3    5   SE      7
    3    5   ES     -4
    3    5   EE     -9
    3   13   SS      6
    3   13   SE     10
    3   13   ES      6
    3   13   EE      0
    3   18   SS      9
    3   18   SE     -4
    3   18   ES     -2
    3   18   EE      9
    4    7   SS      6
    4    7   SE     12
    4    7   ES     12
    4    7   EE      8
    4   13   SS      0
    4   13   SE     -7
    4   13   ES      8
    4   13   EE     -4
    4   19   SS      9
    4   19   SE     -6
    4   19   ES      5
    4   19   EE     -4
    5    6   SS    -12
    5    6   SE      6
    5    6   ES     10
    5    6   EE     -8
    5    9   SS     12
    5    9   SE      3
    5    9   ES      2
    5    9   EE      9
    6    8   SS    -10
    6    8   SE     -1
    6    8   ES      2
    6    8   EE     -5
    6   14   SS      9
    6   14   SE      8
    6   14   ES      1
    6   14   EE      4
    6   19   SS     -2
    6   19   SE    -12
    6   19   ES      8
    6   19   EE      2
    7   11   SS    -11
    7   11   SE     -2
    7   11   ES      9
    7   11   EE     -9
    7   14   SS      5
    7   14   SE     -8
    7   14   ES     -1
    7   14   EE    -10
    8   10   SS      8
    8   10   SE     -9
    8   10   ES    -12
    8   10   EE     -6
    8   20   SS    -10
    8   20   SE      8
    8   20   ES      5
    8   20   EE      1
    9   21   SS      2
    9   21   SE     -8
    9   21   ES    -12
    9   21   EE      3
   10   11   SS     -1
   10   11   SE      6
   10   11   ES     -9
   10   11   EE     -4
   11   15   SS     -4
   11   15   SE     11
   11   15   ES     -1
   11   15   EE      1
   11   16   SS      1
   11   16   SE    -10
   11   16   ES      7
   11   16   EE      1
   12   15   SS      0
   12   15   SE     11
   12   15   ES      2
   12   15   EE      9
   13   17   SS      0
   13   17   SE    -12
   13   17   ES    -10
   13   17   EE     11
   13   20   SS     -2
   13   20   SE    -11
   13   20   ES     10
   13   20   EE     -4
   14   15   SS     -5
   14   15   SE     -4
   14   15   ES    -12
   14   15   EE     12
   14   16   SS    -10
   14   16   SE    -12
   14   16   ES     -7
   14   16   EE      0
   15   17   SS      8
   15   17   SE     -1
   15   17   ES     -2
   15   17   EE      2
   16   17   SS      0
   16   17   SE     10
   16   17   ES     -3
   16   17   EE      2
   17   21   SS     -1
   17   21   SE      1
   17   21   ES      8
   17   21   EE     12
   18   19   SS      0
   18   19   SE     -1
   18   19   ES     11
   18   19   EE      2
   18   20   SS     -6
   18   20   SE     11
   18   20   ES     -8
   18   20   EE      6
   18   21   SS      8
   18   21   SE      3
   18   21   ES      3
   18   21   EE     -3
   19   22   SS    -10
   19   22   SE     12
   19   22   ES    -11
   19   22   EE     -2
   20   22   SS    -12
   20   22   SE      1
   20   22   ES      4
   20   22   EE     -2
   21   22   SS      7
   21   22   SE    -12
   21   22   ES     12
   21   22   EE     11
************************************************************************
